SYSTEM=NaCl
PREC=accurate
EDIFF=1e-7
NSW=0
ISYM=0
ENCUT=500
NBANDS=24
ISMEAR=-5
NWRITE=0
LWAVE=.TRUE.
LCHARG=.FALSE.
