start qmd_dft_h2o_svr
echo
print low
geometry noautosym noautoz
  O   0.00000000    -0.01681748     0.11334792
  H   0.00000000     0.81325914    -0.34310308
  H   0.00000000    -0.67863597    -0.56441201
end
basis
  * library 6-31G*
end
dft
  xc pbe0
end
qmd
  nstep_nucl  5
  dt_nucl     10.0
  targ_temp   200.0
  com_step    10
  thermostat  svr 100.0
  print_xyz   5
end
task dft qmd
