##### Physical settings  ################

  xc          pbe
  RI_method   LVL_fast
  charge      0.0
  spin none
# spin collinear
# default_initial_moment 1
# default_initial_moment hund
  relativistic       atomic_zora scalar
  many_body_dispersion
# vdw_correction_hirshfeld
# mbd_eigensolver lapack

  KS_method          scalapack
  basis_threshold    1.e-5
  empty_states 8

##### SCF settings   ################

  sc_accuracy_forces 1E-4
  sc_accuracy_rho    1E-5
  sc_accuracy_eev    1E-3
  sc_accuracy_etot   1E-6
  sc_iter_limit      600
  mixer pulay
  n_max_pulay 6
  charge_mix_param 0.08
  occupation_type gaussian 0.01

# k-point grid
  k_grid  10 10 10
#####  Relaxation###################

# partition_type  rho_r2
# relax_geometry  bfgs 0.01
# relax_unit_cell full
# relax_unit_cell fixed_angles

#####  Output options #############
#  output mulliken
#  output dipole

#  DOS
   dos_kgrid_factors 8 8 8
   output dos -20 20 10000 0.1
   output atom_proj_dos -20 10000 160 0.1
   output species_proj_dos -20 20 10000 0.1
#  note 0.02 in the DOS parameters is Gaussian broadening.

# output band structure
   output band 0.5   0.5   0.5    0.0   0.0   0.0    50  L     Gamma
   output band 0.0   0.0   0.0    0.0   0.5   0.5    50  Gamma X
   output band 0.0   0.5   0.5    0.25  0.5   0.75   50  X     W
   output band 0.25  0.5   0.75   0.375 0.375 0.75   50  W     K

################################################################################
#
#  FHI-aims code project
#  VB, Fritz-Haber Institut, 2009
#
#  Suggested "light" defaults for Si atom (to be pasted into control.in file)
#  Be sure to double-check any results obtained with these settings for post-processing,
#  e.g., with the "tight" defaults and larger basis sets.
#
################################################################################
   species        Si
#     global species definitions
    nucleus             14
    mass                28.0855
#
    l_hartree           6
#
    cut_pot             4.0          2.0  1.0
    basis_dep_cutoff    1e-4
#
    radial_base         42 7.0
    radial_multiplier   2
    angular_grids       specified
      division   0.4121   50
      division   0.7665  110
      division   1.0603  194
      division   1.2846  302
      division   1.4125  434
#      division   1.4810  590
#      division   1.5529  770
#      division   1.6284  974
#      division   2.6016 1202
#      outer_grid   974
      outer_grid  434
################################################################################
#
#  Definition of "minimal" basis
#
################################################################################
#     valence basis states
    valence      3  s   2.
    valence      3  p   2.
#     ion occupancy
    ion_occ      3  s   1.
    ion_occ      3  p   1.
################################################################################
#
#  Suggested additional basis functions. For production calculations, 
#  uncomment them one after another (the most important basis functions are
#  listed first).
#
#  Constructed for dimers: 1.75 A, 2.0 A, 2.25 A, 2.75 A, 3.75 A
#
################################################################################
#  "First tier" - improvements: -571.96 meV to -37.03 meV
     hydro 3 d 4.2
     hydro 2 p 1.4
     hydro 4 f 6.2
     ionic 3 s auto
#  "Second tier" - improvements: -16.76 meV to -3.03 meV
     hydro 3 d 9
     hydro 5 g 9.4
#     hydro 4 p 4
#     hydro 1 s 0.65
#  "Third tier" - improvements: -3.89 meV to -0.60 meV
#     ionic 3 d auto
#     hydro 3 s 2.6
#     hydro 4 f 8.4
#     hydro 3 d 3.4
#     hydro 3 p 7.8
#  "Fourth tier" - improvements: -0.33 meV to -0.11 meV
#     hydro 2 p 1.6
#     hydro 5 g 10.8
#     hydro 5 f 11.2
#     hydro 3 d 1
#     hydro 4 s 4.5
#  Further basis functions that fell out of the optimization - noise
#  level... < -0.08 meV
#     hydro 4 d 6.6
#     hydro 5 g 16.4
#     hydro 4 d 9
################################################################################
#
# For methods that use the localized form of the "resolution of identity" for
# the two-electron Coulomb operator (RI_method LVL), particularly Hartree-Fock and
# hybrid density functional calculations, the highest accuracy can be obtained by
# uncommenting the line beginning with "for_aux"  below, thus adding an extra g radial
# function to the construction of the product basis set for the expansion.
# See Ref. New J. Phys. 17, 093020 (2015) for more information, particularly Figs. 1 and 6.
#
################################################################################
#
# for_aux hydro 5 g 6.0
