# Diamond structure with lattice constant 5.431 AA.
lattice_vector    0.0000    2.7155   2.7155
lattice_vector    2.7155    0.0000   2.7155
lattice_vector    2.7155    2.7155   0.0000 

atom_frac          0.0    0.0    0.0   Si
atom_frac          0.25   0.25   0.25  Si
