##############################################
# 17.06.2014
# bulk properties of graphene
# lattice parameter a=2.46559807494, c=20.00
##############################################
#
lattice_vector    1.23279904   -2.13527057    0.00000000
lattice_vector    1.23279904    2.13527057    0.00000000
lattice_vector    0.00000000  0.00000000  20.00
#
#  Fractional coordinates:
#                         L1                L2                L3
atom_frac         0.00000000        0.00000000        0.00000000  C
atom_frac         0.66666666        0.33333333        0.00000000  C

