# geometry.in for FHI-aims 
# | generated by phonopy.FHIaims.write_aims() 
lattice_vector 5.6399999999999988 0.0000000000000000 0.0000000000000000 
lattice_vector 0.0000000000000000 5.6399999999999988 0.0000000000000000 
lattice_vector 0.0000000000000000 0.0000000000000000 5.6399999999999988 
atom 0.0100000000000000 0.0000000000000000 0.0000000000000000 Ge 
atom 5.6399999999999988 2.8199999999999994 2.8199999999999994 Ge 
atom 2.8199999999999994 0.0000000000000000 2.8199999999999994 Ge 
atom 2.8199999999999990 2.8199999999999994 0.0000000000000000 Ge 
atom 1.4099999999999995 1.4099999999999997 1.4099999999999997 Ge 
atom 1.4099999999999993 4.2299999999999986 4.2299999999999986 Ge 
atom 4.2299999999999986 1.4099999999999997 4.2299999999999986 Ge 
atom 4.2299999999999986 4.2299999999999986 1.4099999999999997 Ge 
