lattice_vector      3.9473      0.00000000      0.00000000
lattice_vector      0.00000000      5.5823      0.00000000
lattice_vector      0.00000000      0.00000000    250.00000000
atom	-1.97365	4.1867438961	4.1867438961	O
atom	-1.97365	1.3955812987	4.1867438961	O
atom	0	2.7911625974	2.7911625974	Sr
atom	-1.97365	5.5823251948	2.7911625974	Ti
atom	0	5.5823251948	2.7911625974	O
atom	-1.97365	1.3955812987	1.3955812987	O
atom	-1.97365	4.1867438961	1.3955812987	O
atom	0	5.5823251948	6.197625962162E-016	Sr
atom	-1.97365	2.7911625974	6.197625962162E-016	Ti
atom	0	2.7911625974	6.197625962162E-016	O
atom	-1.97365	4.1867438961	-1.3955812987	O
atom	-1.97365	1.3955812987	-1.3955812987	O
atom	0	2.7911625974	-2.7911625974	Sr
atom	-1.97365	5.5823251948	-2.7911625974	Ti
atom	0	5.5823251948	-2.7911625974	O
homogeneous_field	0.0	0.0	13.0 #0.041075202
