# geometry.in for FHI-aims 
# | generated by phonopy.FHIaims.write_aims() 
lattice_vector 5.5271999999999988 0.0000000000000000 0.0000000000000000 
lattice_vector 0.0000000000000000 5.5271999999999988 0.0000000000000000 
lattice_vector 0.0000000000000000 0.0000000000000000 5.5271999999999988 
atom 0.0100000000000000 0.0000000000000000 0.0000000000000000 Ge 
atom 5.5271999999999988 2.7635999999999994 2.7635999999999994 Ge 
atom 2.7635999999999994 0.0000000000000000 2.7635999999999994 Ge 
atom 2.7635999999999989 2.7635999999999994 0.0000000000000000 Ge 
atom 1.3817999999999995 1.3817999999999997 1.3817999999999997 Ge 
atom 1.3817999999999993 4.1453999999999986 4.1453999999999986 Ge 
atom 4.1453999999999986 1.3817999999999997 4.1453999999999986 Ge 
atom 4.1453999999999986 4.1453999999999986 1.3817999999999997 Ge 
