&control
    calculation='relax'
    restart_mode='from_scratch',
    tstress = .true.
    tprnfor = .true.
    forc_conv_thr =  4.0D-5
    prefix='W',
    disk_io='low',
    wfcdir='/tmp',
    pseudo_dir = './',
    outdir='./'
/
&system    
    ibrav=0, 
    celldm(1) = 1.889726134,
    nat=  135,
    ntyp= 1,
    degauss=0.02,
    smearing='mp',
    occupations='smearing',
    ecutwfc =30.0
    ecutrho =120.0
    nosym=.TRUE.
 /
 &electrons
    conv_thr =  5.0d-7
    mixing_beta = 0.02
    electron_maxstep = 150
 /
 &ions
    bfgs_ndim         = 3,
    pot_extrapolation = "second_order",
    wfc_extrapolation = "second_order",
/
ATOMIC_SPECIES
 W  183.84  W.UPF
K_POINTS AUTOMATIC 
1 2 16 0 0 0 
CELL_PARAMETERS (alat)
  40.726845520   0.000000000   0.000000000
20.363422760 21.162289701 -0.95322
   0.000000000   0.000000000   2.879822864
ATOMIC_POSITIONS (crystal)
W        0.000129325   0.000043551   0.150779369
W        0.043653260   0.112082569   0.111833490
W        0.977882480   0.111391782   0.500045938
W        0.132252115   0.000575545   0.396305718
W        0.066108340   0.000533820   0.769233363
W        0.109925083   0.111725433   0.748913556
W        0.890153629   0.220847719   0.247718102
W        0.932119180   0.335802298   0.105098636
W        0.865588168   0.335391726   0.491200435
W        0.020995804   0.223649468   0.442198105
W        0.954665238   0.223696960   0.826102374
W       -0.000667763   0.334516042   0.768714052
W        0.777338489   0.447642844   0.919673033
W        0.822091523   0.558115257   0.077963591
W        0.755249309   0.558030600   0.349534600
W        0.911040692   0.446314489   0.425003873
W        0.844536544   0.447982510   0.722261684
W        0.889331843   0.556938353   0.775315294
W        0.666191268   0.667948985   1.006460192
W        0.711568913   0.778456666   0.130318783
W        0.644350597   0.778550969   0.417392789
W        0.800493680   0.668046701   0.449199016
W        0.733231300   0.668394906   0.738855603
W        0.778670202   0.778465243   0.828856706
W        0.555557085   0.888878258   0.104884669
W        0.689846755   0.889047066   0.527500102
W        0.622756488   0.888960840   0.820727959
W        0.198835132   0.000068384   0.041758538
W        0.243461742   0.110301247   0.073848238
W        0.176623727   0.110933908   0.402988745
W        0.332442903  -0.000698476   0.381315228
W        0.265619341  -0.000499220   0.702654817
W        0.310614875   0.109719826   0.760975558
W        0.087778043   0.222778282   0.092889720
W        0.133240679   0.332546230   0.104439829
W        0.066225270   0.333465602   0.435538656
W        0.221785076   0.220835528   0.434835796
W        0.154727271   0.221792432   0.756435252
W        0.200079663   0.331465244   0.785211697
W        0.977878362   0.445238050   0.105680484
W        0.023344041   0.555011034   0.117270253
W        0.956392185   0.555988331   0.453671691
W        0.111786965   0.443270820   0.441498346
W        0.044893741   0.444322771   0.774616403
W        0.090123221   0.554150004   0.768047333
W        0.867650325   0.667468557   0.136340269
W        0.912281831   0.777712574   0.168409651
W        0.845496711   0.778273185   0.507496589
W        0.001193263   0.666067806   0.461235696
W        0.934491942   0.666842997   0.807158117
W        0.978861142   0.777223683   0.813810333
W        0.756645280   0.889278895   0.215932610
W        0.890014892   0.888755906   0.536292371
W        0.823394787   0.889156556   0.885176440
W        0.399541465  -0.000695175   0.079756286
W        0.444931453   0.109800412   0.203518938
W        0.377884280   0.109357817   0.471300120
W        0.533891452  -0.000620140   0.514244533
W        0.466764028  -0.000795932   0.792528302
W        0.512103297   0.109752728   0.933660810
W        0.289026256   0.219644315   0.132234780
W        0.333761741   0.330088980   0.289578022
W        0.266585568   0.329782110   0.488099642
W        0.422985770   0.220694725   0.637877243
W        0.355880058   0.219700675   0.860475848
W        0.402954110   0.329584481   0.111237984
W        0.178999054   0.441981056   0.105113615
W        0.220958954   0.556941834   0.962311893
W        0.156445940   0.554105955   0.384145887
W        0.309170628   0.446293604   0.147389981
W        0.245535972   0.442379941   0.719037840
W        0.287784602   0.556208593   0.543611663
W        0.067465109   0.665727758   0.098327251
W        0.110978039   0.777785639   0.059198117
W        0.045002454   0.777283605   0.440818848
W        0.199483694   0.667022680   0.312278948
W        0.133228111   0.666433199   0.710071122
W        0.177217065   0.777885611   0.674709233
W        0.956323858   0.888696322   0.171768962
W        0.088556326   0.889118576   0.414068847
W        0.022548226   0.888707746   0.795903899
W        0.601018294  -0.000422455   0.228631004
W        0.645833185   0.110829546   0.343732187
W        0.579206219   0.109998748   0.649303619
W        0.734606924   0.000166356   0.610728823
W        0.667948646  -0.000115053   0.929253239
W        0.712323750   0.111307719   0.015655336
W        0.490426320   0.219977188   0.381429208
W        0.534022121   0.332675282   0.536380130
W        0.468274175   0.331524737   0.843270252
W        0.623231550   0.221957677   0.771864877
W        0.556932946   0.221014521   0.087316025
W        0.600291741   0.333438643   0.214230760
W        0.377655741   0.442333391   0.673260474
W        0.421475908   0.555004513   0.772726917
W        0.355007973   0.554615380   0.135070003
W        0.510784574   0.444316283   0.996192296
W        0.444501788   0.443369352   0.323200777
W        0.487866687   0.555796064   0.438421748
W        0.266023339   0.666527235   0.919177181
W        0.309995600   0.777486191   0.937622783
W        0.243631227   0.777555955   0.297441623
W        0.398794711   0.666459322   0.194456548
W        0.332486168   0.666193341   0.543693827
W        0.376523542   0.777602055   0.599214256
W        0.154786383   0.889117477   0.038261417
W        0.287729891   0.888623959   0.324910144
W        0.221104692   0.889041448   0.673816075
W        0.801131007   0.000297041   0.272400636
W        0.845088126   0.111279247   0.290943187
W        0.778627485   0.111592116   0.666473232
W        0.933893372  -0.000061417   0.535333176
W        0.867486170   0.000251342   0.912612896
W        0.911624677   0.110798606   0.897767192
W        0.689617268   0.222759348   0.437669956
W        0.733408248   0.335446602   0.537804638
W        0.666572541   0.334389897   0.887356528
W        0.823302890   0.221620177   0.667152254
W        0.756084004   0.223168525   0.075537053
W        0.801858162   0.331587915   0.065734088
W        0.577056096   0.445075874   0.674003517
W        0.620685685   0.557767939   0.828634989
W        0.554172236   0.556731898   0.122892264
W        0.708146637   0.448167756   0.098372263
W        0.642819633   0.446216996   0.366963613
W        0.688130900   0.557053507   0.571858767
W        0.465289175   0.666923587   0.866340092
W        0.510109746   0.778174892   0.981257641
W        0.443179771   0.777878080   0.280670840
W        0.599020830   0.667997325   0.276225009
W        0.531918858   0.667747842   0.560660506
W        0.577228861   0.778371964   0.695570315
W        0.354479774   0.888489623   0.994103665
W        0.488360999   0.888795253   0.389134930
W        0.421273266   0.888715273   0.682460861
